(set-logic QF_SLIA)
(declare-fun var0 () String)
(assert (not (str.in_re var0 (re.++ ((_ re.loop 20 199) (re.++ (re.union (str.to_re "B") (re.union (str.to_re "`") (re.union (str.to_re "jB") (str.to_re "bd")))) (re.++ (re.union (str.to_re "('") (re.union (str.to_re "4Gh") (re.union (str.to_re "3h") (str.to_re ".]")))) (re.++ (re.union (str.to_re "+") (re.union (str.to_re "Gm") (re.union (str.to_re "x.J") (str.to_re "97")))) (re.union (str.to_re "r_") (re.union (str.to_re "%") (re.union (str.to_re "4E4") (str.to_re "C59")))))))) (re.++ ((_ re.loop 5 366) (re.++ (re.union (str.to_re "(Y") (re.union (str.to_re "y") (re.union (str.to_re "B;") (str.to_re "WE;")))) (re.++ (re.union (str.to_re ":") (re.union (str.to_re "7E!") (re.union (str.to_re "p") (str.to_re "y")))) (re.++ (re.union (str.to_re "nN5") (re.union (str.to_re "EW") (re.union (str.to_re "j5|") (str.to_re "DDE")))) (re.union (str.to_re "6L") (re.union (str.to_re "U") (re.union (str.to_re "\u0022rh") (str.to_re "J")))))))) (re.++ ((_ re.loop 16 725) (re.++ (re.union (str.to_re "N_") (re.union (str.to_re "hWW") (re.union (str.to_re "6") (str.to_re "np")))) (re.++ (re.union (str.to_re "J~\\") (re.union (str.to_re "aJx") (re.union (str.to_re ",i") (str.to_re "j")))) (re.++ (re.union (str.to_re "%") (re.union (str.to_re "~F_") (re.union (str.to_re "Cr") (str.to_re "`")))) (re.union (str.to_re "-") (re.union (str.to_re ";") (re.union (str.to_re "e!X") (str.to_re "^")))))))) ((_ re.loop 8 565) (re.++ (re.union (str.to_re "Oy0") (re.union (str.to_re "S6(") (re.union (str.to_re "A") (str.to_re "z")))) (re.++ (re.union (str.to_re "/Ku") (re.union (str.to_re "D^\\") (re.union (str.to_re "}") (str.to_re "U")))) (re.++ (re.union (str.to_re "=h") (re.union (str.to_re "w") (re.union (str.to_re "9K") (str.to_re "MI")))) (re.union (str.to_re "Y") (re.union (str.to_re "V{s") (re.union (str.to_re "-9G") (str.to_re "|"))))))))))))))
(assert (not (str.in_re var0 (re.++ ((_ re.loop 0 415) (re.++ (re.union (str.to_re "7") (re.union (str.to_re "#$t") (re.union (str.to_re "ov#") (str.to_re "dFh")))) (re.++ (re.union (str.to_re "Z|") (re.union (str.to_re "IwG") (re.union (str.to_re ";") (str.to_re "U`")))) (re.++ (re.union (str.to_re "l") (re.union (str.to_re "g") (re.union (str.to_re "^1V") (str.to_re "f")))) (re.union (str.to_re "OB") (re.union (str.to_re "z<") (re.union (str.to_re "4j(") (str.to_re "v.")))))))) (re.++ ((_ re.loop 1 750) (re.++ (re.union (str.to_re "p") (re.union (str.to_re "\\Xu") (re.union (str.to_re "MUF") (str.to_re ",")))) (re.++ (re.union (str.to_re "K") (re.union (str.to_re "rw") (re.union (str.to_re "I") (str.to_re "A")))) (re.++ (re.union (str.to_re ".") (re.union (str.to_re "C") (re.union (str.to_re "=") (str.to_re "~")))) (re.union (str.to_re "t") (re.union (str.to_re "r") (re.union (str.to_re "W") (str.to_re "a|")))))))) (re.++ ((_ re.loop 18 84) (re.++ (re.union (str.to_re "<!") (re.union (str.to_re "$ao") (re.union (str.to_re "KB") (str.to_re "B!")))) (re.++ (re.union (str.to_re "$") (re.union (str.to_re "s<:") (re.union (str.to_re "np") (str.to_re "q")))) (re.++ (re.union (str.to_re "U") (re.union (str.to_re "YWc") (re.union (str.to_re ">L") (str.to_re "n")))) (re.union (str.to_re ">F0") (re.union (str.to_re "1") (re.union (str.to_re "];N") (str.to_re "Jq")))))))) ((_ re.loop 14 94) (re.++ (re.union (str.to_re "j`") (re.union (str.to_re "=") (re.union (str.to_re "m") (str.to_re "E")))) (re.++ (re.union (str.to_re "x") (re.union (str.to_re "q") (re.union (str.to_re "D>X") (str.to_re "|@")))) (re.++ (re.union (str.to_re "5O7") (re.union (str.to_re "Dr") (re.union (str.to_re "spB") (str.to_re "+R")))) (re.union (str.to_re ">H") (re.union (str.to_re "4|k") (re.union (str.to_re "8G") (str.to_re "'q"))))))))))))))
(assert (not (str.in_re var0 (re.++ (re.* re.allchar) (re.++ (re.union (str.to_re "<") (re.union (str.to_re ">") (re.union (str.to_re "'") (re.union (str.to_re "\u0022") (str.to_re "&"))))) (re.* re.allchar))))))
(assert (<= 50 (str.len var0)))
(check-sat)
(get-model)
